\ File written by HiGHS .lp file handler
min
 obj: +0.42409 VALRES +1 RVAD72 +0.90909 RVAD73 +0.82644 RVAD74 +0.75131 RVAD75 +0.68301 RVAD76 +0.62092 RVAD77 +0.56447 RVAD78 +0.51315 RVAD79 +0.4665 RVAD80 +0.42409 RVAD81 -0.28224 ESEC78 -0.28224 HENE78 -0.25659 ESEC79 -0.25659 HENE79 -0.23326 ESEC80 -0.23326 HENE80 -0.21205 ESEC81 -0.21205 HENE81 
st
 VLRES: -1 VALRES +9.99983 INTT81 -1.50001 ESEC81 -9e-05 EHRP81 -9e-05 HENE81 +8.58846 ENRP81 +8.58846 NENE81 +68.52119 ETRP81 +68.52119 TENE81 +73.08212 EBRP81 +73.08212 BENE81 +217.74481 GENE81 +217.74481 EGRP81 +27.45341 OUT278 +27.96248 OUT279 +28.49783 OUT280 +12.32012 CASC78 +12.47792 CASC79 +12.64388 CASC80 +12.81823 CASC81 +12.26072 CHAL78 +12.40026 CHAL79 +12.54695 CHAL80 +12.70101 CHAL81 +28.90616 CHAI78 +29.4023 CHAI79 +29.92389 CHAI80 +30.47165 CHAI81 +5.0256 TGAZ78 +5.06904 TGAZ79 +5.11833 TGAZ80 +5.17342 TGAZ81 +129.2112 N60078 +131.16989
 N60079 +133.29187 N60080 +135.57887 N60081 +67.22089 T75078 +68.13623 T75079 +69.12788 T75080 +70.19667 T75081 = +0
 RAI72: -1 RNAI72 +1 RVAD72 -1 DEPN72 = -329.00562
 CVI72: +1 RNAI72 -1.25002 INTT72 >= +0
 TRS72: +1 RNAI72 +1 DEPN72 -1 INVT72 +1 INTC72 -1 INTT72 +1 DETT72 >= +73.00125
 FPR72: +1 RNAI72 +1 INTC72 -1 INTT72 -1 FOPR72 = -1048.0178
 DEP72: -1 DEPN72 = -65.00111
 DEP73: +1 DEPN72 -1 DEPN73 = -5.00011
 INV72: -1 INVT72 +1.65574 OUT278 +1.15012 CHAI78 +16.92413 N60078 = -349.00586
 INC72: -1 INTC72 +0.06486 OUT278 +0.04505 CHAI78 +0.66294 N60078 = -54.00093
 INT72: -1 INTT72 +0.085 DETT72 = -192.00334
 TRS73: -1 DETT72 +1 RNAI73 +1 DEPN73 -1 INVT73 +1 INTC73 -1 INTT73 +1 DETT73 >= +139.82237
 CAF72: -1 DETT72 +4.00007 FOPR72 >= +2846.0491
 FPR73: +1 FOPR72 +1 RNAI73 +1 INTC73 -1 INTT73 -1 FOPR73 = -6.0001
 RAI73: -1 RNAI73 +1 RVAD73 -1 DEPN73 = -336.45654
 CVI73: +1 RNAI73 -1.25002 INTT73 >= +0
 DEP74: +1 DEPN73 -1 DEPN74 = -4.00006
 INV73: -1 INVT73 +5.67333 OUT278 +1.72197 OUT279 +11.88958 CHAI78 +1.19612 CHAI79 +36.58653 N60078 +17.60109 N60079 +2.25458 T75078 = -313.00537
 INC73: -1 INTC73 +0.34686 OUT278 +0.06745 OUT279 +0.5523 CHAI78 +0.04685 CHAI79 +2.70708 N60078 +0.68946 N60079 +0.08831 T75078 = -50.00087
 INT73: -1 INTT73 +0.085 DETT73 = -191.0033
 TRS74: -1 DETT73 +1 RNAI74 +1 DEPN74 -1 INVT74 +1 INTC74 -1 INTT74 +1 DETT74 >= +148.63713
 CAF73: -1 DETT73 +4.00007 FOPR73 >= +2697.0461
 FPR74: +1 FOPR73 +1 RNAI74 +1 INTC74 -1 INTT74 -1 FOPR74 = -6.0001
 RAI74: -1 RNAI74 +1 RVAD74 -1 DEPN74 = -343.0564
 CVI74: +1 RNAI74 -1.25002 INTT74 >= +0
 DEP75: +1 DEPN74 -1 DEPN75 = -4.00006
 INV74: -1 INVT74 +22.61821 OUT278 +5.90026 OUT279 +1.79085 OUT280 +3.50541 CASC78 +2.9618 CHAL78 +26.33287 CHAI78 +12.36516 CHAI79 +1.24397 CHAI80 +65.80643 N60078 +38.04999 N60079 +18.30511 N60080 +16.5063 T75078 +2.34476 T75079 = -302.00513
 INC74: -1 INTC74 +1.4279 OUT278 +0.36074 OUT279 +0.07015 OUT280 +0.13731 CASC78 +0.11602 CHAL78 +2.00625 CHAI78 +0.57439 CHAI79 +0.04873 CHAI80 +6.50584 N60078 +2.81536 N60079 +0.71703 N60080 +0.81628 T75078 +0.09185 T75079 = -49.00082
 INT74: -1 INTT74 +0.085 DETT74 = -184.0032
 TRS75: -1 DETT74 +1 RNAI75 +1 DEPN75 -1 INVT75 +1 INTC75 -1 INTT75 +1 DETT75 >= +160.4463
 CAF74: -1 DETT74 +4.00007 FOPR74 >= +2539.0432
 FPR75: +1 FOPR74 +1 RNAI75 +1 INTC75 -1 INTT75 -1 FOPR75 = -5.00009
 RAI75: -1 RNAI75 +1 RVAD75 -1 DEPN75 = -345.83228
 CVI75: +1 RNAI75 -1.25002 INTT75 >= +0
 DEP76: +1 DEPN75 -1 DEPN76 = -9.00015
 INV75: -1 INVT75 +47.27449 OUT278 +23.52068 OUT279 +6.13627 OUT280 +13.65878 CASC78 +3.64563 CASC79 +13.08475 CHAL78 +3.07718 CHAL79 +38.2083 CHAI78 +27.37502 CHAI79 +12.85976 CHAI80 +1.29373 CHAI81 +77.6349 N60078 +68.43272 N60079 +39.57196 N60080 +19.03732 N60081 +31.35274 T75078 +17.16382 T75079 +2.43855 T75080 = -320.00562
 INC75: -1 INTC75 +4.05381 OUT278 +1.48493 OUT279 +0.37517 OUT280 +0.79889 CASC78 +0.1428 CASC79 +0.73549 CHAL78 +0.12054 CHAL79 +4.37723 CHAI78 +2.08606 CHAI79 +0.59737 CHAI80 +0.05068 CHAI81 +11.61492 N60078 +6.76584 N60079 +2.92797 N60080 +0.74571 N60081 +2.62702 T75078 +0.84883 T75079 +0.09552 T75080 = -60.00102
 INT75: -1 INTT75 +0.085 DETT75 = -174.00296
 TRS76: -1 DETT75 +1 RNAI76 +1 DEPN76 -1 INVT76 +1 INTC76 -1 INTT76 +1 DETT76 >= +100.24867
 CAF75: -1 DETT75 +4.00007 FOPR75 >= +2369.04
 FPR76: +1 FOPR75 +1 RNAI76 +1 INTC76 -1 INTT76 -1 FOPR76 = -4.00007
 RAI76: -1 RNAI76 +1 RVAD76 -1 DEPN76 = -367.80737
 CVI76: +1 RNAI76 -1.25002 INTT76 >= +0
 DEP77: +1 DEPN76 -1 DEPN77 = -4.00006
 INV76: -1 INVT76 +2.25538 AD1378 +3.38307 AD2378 +0.90215 AD3578 +2.25538 AD5478 +5.63844 AD5678 +53.49582 OUT278 +49.16049 OUT279 +24.45918 OUT280 +18.45009 CASC78 +14.20513 CASC79 +3.79145 CASC80 +17.00111 CHAL78 +13.6013 CHAL79 +3.19711 CHAL80 +55.27832 CHAI78 +39.71201 CHAI79 +28.4586 CHAI80 +13.37415 CHAI81 +0.88587 TGAZ78 +76.10367 N60078 +80.72719 N60079 +71.16388 N60080 +41.15482 N60081 +60.29823 T75078 +32.60081 T75079 +17.84756 T75080 +2.5361 T75081 = -267.00464
 INC76: -1 INTC76 +0.09195 AD1378 +0.13792 AD2378 +0.03678 AD3578 +0.09195 AD5478 +0.22986 AD5678 +7.68351 OUT278 +4.2156 OUT279 +1.54423 OUT280 +1.99405 CASC78 +0.83085 CASC79 +0.14852 CASC80 +1.85637 CHAL78 +0.76441 CHAL79 +0.12523 CHAL80 +7.69628 CHAI78 +4.55051 CHAI79 +2.16906 CHAI80 +0.62126 CHAI81 +0.0347 TGAZ78 +16.72708 N60078 +12.07855 N60079 +7.03623 N60080 +3.04509 N60081 +6.01129 T75078 +2.73166 T75079 +0.88267 T75080 +0.09934 T75081 = -65.00111
 INT76: -1 INTT76 +0.085 DETT76 = -167.00285
 TRS77: -1 DETT76 +1 RNAI77 +1 DEPN77 -1 INVT77 +1 INTC77 -1 INTT77 +1 DETT77 >= +105.04611
 CAF76: -1 DETT76 +4.00007 FOPR76 >= +2259.0381
 FPR77: +1 FOPR76 +1 RNAI77 +1 INTC77 -1 INTT77 -1 FOPR77 = -4.00007
 RAI77: -1 RNAI77 +1 RVAD77 -1 DEPN77 = -387.00073
 CVI77: +1 RNAI77 -1.25002 INTT77 >= +0
 DEP78: +1 DEPN77 -1 DEPN78 +0.01688 AD1378 +0.02926 AD2378 +0.00788 AD3578 +0.01688 AD5478 +0.06752 AD5678 +1.43546 OUT278 +0.44353 CASC78 +0.3985 CHAL78 +1.4172 CHAI78 +0.26102 TGAZ78 +7.19542 N60078 +3.3623 T75078 = -3.00003
 INV77: -1 INVT77 +1.57199 AD1378 +2.47302 AD2378 +1.1119 AD3578 +1.57199 AD5478 +2.5497 AD5678 +2.30048 AD1379 +3.45072 AD2379 +0.92019 AD3579 +2.30048 AD5479 +5.75121 AD5679 +32.85997 OUT278 +55.61571 OUT279 +51.1218 OUT280 +13.03732 CASC78 +19.1881 CASC79 +14.77332 CASC80 +3.9431 CASC81 +12.92585 CHAL78 +17.65373 CHAL79 +14.13837 CHAL80 +3.32177 CHAL81 +36.20004 CHAI78 +57.39073 CHAI79 +41.27533 CHAI80 +29.5853 CHAI81 +5.88239 TGAZ78 +0.91423 TGAZ79 +64.4689 N60078 +79.09523 N60079 +83.94284 N60080 +74.00421 N60081 +38.60837 T75078 +62.68602 T75079
 +33.89868 T75080 +18.55862 T75081 = -231.00404
 INC77: -1 INTC77 +0.24798 AD1378 +0.37666 AD2378 +0.11889 AD3578 +0.24798 AD5478 +0.56367 AD5678 +0.09378 AD1379 +0.14068 AD2379 +0.03751 AD3579 +0.09378 AD5479 +0.23446 AD5679 +10.46422 OUT278 +7.98954 OUT279 +4.38385 OUT280 +3.07123 CASC78 +2.07381 CASC79 +0.86408 CASC80 +0.15446 CASC81 +2.88321 CHAL78 +1.92882 CHAL79 +0.79447 CHAL80 +0.13012 CHAL81 +10.67664 CHAI78 +7.99763 CHAI79 +4.73069 CHAI80 +2.25536 CHAI81 +0.2971 TGAZ78 +0.03581 TGAZ79 +20.92299 N60078 +17.39268 N60079 +12.56071 N60080 +7.31744 N60081 +9.41463 T75078 +6.25015 T75079 +2.84048
 T75080 +0.91786 T75081 = -33.00056
 INT77: -1 INTT77 +0.085 DETT77 = -161.00279
 TRS78: -1 DETT77 +1 RNAI78 +1 DEPN78 -1 INVT78 +1 INTC78 -1 INTT78 +1 DETT78 >= +117.83769
 CAF77: -1 DETT77 +4.00007 FOPR77 >= +2144.0359
 FPR78: +1 FOPR77 +1 RNAI78 +1 INTC78 -1 INTT78 -1 FOPR78 = -3.00005
 RAI78: -1 RNAI78 +1 RVAD78 -1 DEPN78 -1 FEXE78 -0.35001 ESEC78 -0.50001 EHRP78 -0.50001 HENE78 -0.74282 ENRP78 -0.74282 NENE78 -5.06437 ETRP78 -5.06437 TENE78 -5.40147 EBRP78 -5.40147 BENE78 -16.09344 GENE78 = -399.19189
 CVI78: +1 RNAI78 -1.25002 INTT78 >= +0
 DEP79: +1 DEPN78 -1 DEPN79 +0.01722 AD1379 +0.02985 AD2379 +0.00804 AD3579 +0.01722 AD5479 +0.06888 AD5679 +1.49269 OUT279 +0.46127 CASC79 +0.41417 CHAL79 +1.47295 CHAI79 +0.27 TGAZ79 +7.48138 N60079 +3.49594 T75079 = -5.00009
 INV78: -1 INVT78 +1.60343 AD1379 +2.52247 AD2379 +1.13414 AD3579 +1.60343 AD5479 +2.60069 AD5679 +2.34649 AD1380 +3.51973 AD2380 +0.9386 AD3580 +2.34649 AD5480 +5.86623 AD5680 +34.14847 OUT279 +57.81995 OUT280 +13.55881 CASC79 +19.9556 CASC80 +15.36425 CASC81 +13.40728 CHAL79 +18.33189 CHAL80 +14.69678 CHAL81 +37.5199 CHAI79 +59.5856 CHAI80 +42.90071 CHAI81 +6.08514 TGAZ79 +0.94353 TGAZ80 +66.97932 N60079 +82.2054 N60080 +87.28688 N60081 +40.12126 T75079 +65.16879 T75080 +35.24835 T75081 = -190.00325
 INC78: -1 INTC78 +0.25294 AD1379 +0.38419 AD2379 +0.12126 AD3579 +0.25294 AD5479 +0.57495 AD5679 +0.09566 AD1380 +0.14349 AD2380 +0.03826 AD3580 +0.09566 AD5480 +0.23915 AD5680 +10.87979 OUT279 +8.30778 OUT280 +3.19407 CASC79 +2.15676 CASC80 +0.89865 CASC81 +2.9944 CHAL79 +2.00413 CHAL80 +0.82573 CHAL81 +11.08884 CHAI79 +8.31091 CHAI80 +4.91803 CHAI81 +0.30718 TGAZ79 +0.03696 TGAZ80 +21.75198 N60079 +18.08487 N60080 +13.06213 N60081 +9.78758 T75079 +6.49853 T75080 +2.95364 T75081 = -30.00052
 INT78: -1 INTT78 +0.085 DETT78 = -154.0027
 TRS79: -1 DETT78 +1 RNAI79 +1 DEPN79 -1 INVT79 +1 INTC79 -1 INTT79 +1 DETT79 >= +98.62241
 CAF78: -1 DETT78 +4.00007 FOPR78 >= +2016.0334
 FPR79: +1 FOPR78 +1 RNAI79 +1 INTC79 -1 INTT79 -1 FOPR79 = -2.00004
 RAI79: -1 RNAI79 +1 RVAD79 -1 DEPN79 -1 FEXE79 -0.35001 ESEC79 -0.50001 EHRP79 -0.50001 HENE79 -0.75025 ENRP79 -0.75025 NENE79 -5.16566 ETRP79 -5.16566 TENE79 -5.50949 EBRP79 -5.50949 BENE79 -16.4153 GENE79 = -427.51025
 CVI79: +1 RNAI79 -1.25002 INTT79 >= +0
 DEP80: +1 DEPN79 -1 DEPN80 +0.01756 AD1380 +0.03044 AD2380 +0.0082 AD3580 +0.01756 AD5480 +0.07025 AD5680 +1.5522 OUT280 +0.47972 CASC80 +0.43047 CHAL80 +1.53091 CHAI80 +0.27928 TGAZ80 +7.77874 N60080 +3.6349 T75080 = -3.00011
 INV79: -1 INVT79 +1.6355 AD1380 +2.57292 AD2380 +1.15682 AD3580 +1.6355 AD5480 +2.6527 AD5680 +2.39342 AD1381 +3.59013 AD2381 +0.95737 AD3581 +2.39342 AD5481 +5.98354 AD5681 +35.48801 OUT280 +14.10115 CASC80 +20.75381 CASC81 +13.90725 CHAL80 +19.03664 CHAL81 +38.89 CHAI80 +61.86629 CHAI81 +6.29493 TGAZ80 +0.9738 TGAZ81 +69.58878 N60080 +85.43887 N60081 +41.69402 T75080 +67.75043 T75081 = -183.00316
 INC79: -1 INTC79 +0.258 AD1380 +0.39187 AD2380 +0.12369 AD3580 +0.258 AD5480 +0.58645 AD5680 +0.09757 AD1381 +0.14636 AD2381 +0.03903 AD3581 +0.09757 AD5481 +0.24393 AD5681 +11.3119 OUT280 +3.32183 CASC80 +2.24303 CASC81 +3.10996 CHAL80 +2.08242 CHAL81 +11.51721 CHAI80 +8.63658 CHAI81 +0.3176 TGAZ80 +0.03814 TGAZ81 +22.61397 N60080 +18.80464 N60081 +10.17536 T75080 +6.75682 T75081 = -31.00053
 INT79: -1 INTT79 +0.085 DETT79 = -151.00256
 TRS80: -1 DETT79 +1 RNAI80 +1 DEPN80 -1 INVT80 +1 INTC80 -1 INTT80 +1 DETT80 >= +113.40132
 CAF79: -1 DETT79 +4.00007 FOPR79 >= +1907.0313
 FPR80: +1 FOPR79 +1 RNAI80 +1 INTC80 -1 INTT80 -1 FOPR80 = -1.00002
 RAI80: -1 RNAI80 +1 RVAD80 -1 DEPN80 -1 FEXE80 -0.35001 ESEC80 -0.50001 EHRP80 -0.50001 HENE80 -0.75775 ENRP80 -0.75775 NENE80 -5.26896 ETRP80 -5.26896 TENE80 -5.61968 EBRP80 -5.61968 BENE80 -16.74359 GENE80 = -456.94946
 CVI80: +1 RNAI80 -1.25002 INTT80 >= +0
 DEP81: +1 DEPN80 -1 DEPN81 +0.01791 AD1381 +0.03105 AD2381 +0.00836 AD3581 +0.01791 AD5481 +0.07166 AD5681 +0.49891 CASC81 +0.44742 CHAL81 +1.59116 CHAI81 +0.28888 TGAZ81 +8.08795 N60081 +3.77941 T75081 = -7.00009
 INV80: -1 INVT80 +1.66821 AD1381 +2.62438 AD2381 +1.17995 AD3581 +1.66821 AD5481 +2.70575 AD5681 +14.66519 CASC81 +14.4265 CHAL81 +40.31227 CHAI81 +6.51199 TGAZ81 +72.30124 N60081 +43.32906 T75081 = -192.00334
 INC80: -1 INTC80 +0.26316 AD1381 +0.39971 AD2381 +0.12616 AD3581 +0.26316 AD5481 +0.59817 AD5681 +3.45471 CASC81 +3.23006 CHAL81 +11.96242 CHAI81 +0.32838 TGAZ81 +23.51027 N60081 +10.57858 T75081 = -30.00052
 INT80: -1 INTT80 +0.085 DETT80 = -144.00246
 TRS81: -1 DETT80 +1 RNAI81 +1 DEPN81 -1 INVT81 +1 INTC81 -1 INTT81 +1 DETT81 >= +161.17412
 CAF80: -1 DETT80 +4.00007 FOPR80 >= +1783.0288
 FPR81: +1 FOPR80 +1 RNAI81 +1 INTC81 -1 INTT81 -1 FOPR81 = -1.00002
 RAI81: -1 RNAI81 +1 RVAD81 -1 DEPN81 -1 FEXE81 -0.35001 ESEC81 -0.50001 EHRP81 -0.50001 HENE81 -0.76533 ENRP81 -0.76533 NENE81 -5.37434 ETRP81 -5.37434 TENE81 -5.73207 EBRP81 -5.73207 BENE81 -17.07845 GENE81 = -487.49097
 CVI81: +1 RNAI81 -1.25002 INTT81 >= +0
 INV81: -1 INVT81 = -202.00348
 INC81: -1 INTC81 = -30.00052
 INT81: -1 INTT81 +0.085 DETT81 = -137.00235
 CAF81: -1 DETT81 +4.00007 FOPR81 >= +1611.0256
 L1378: -1 CP1378 +0.50001 AD1378 = -3.00005
 L1379: +1 CP1378 -1 CP1379 +0.50001 AD1379 = +0
 R1378: -1 CP1378 +1 XX1378 <= +0
 FXE78: -1 FEXE78 +0.23175 AD1378 +0.57937 AD2378 +0.08111 AD3578 +0.02317 AD5478 +0.40556 AD5678 +0.50139 OUT278 +0.30957 CASC78 +0.34173 CHAL78 +0.61043 CHAI78 +0.06932 TGAZ78 +3.01304 N60078 +1.76342 T75078 = +0
 FXE79: -1 FEXE79 +0.23754 AD1378 +0.59385 AD2378 +0.08314 AD3578 +0.02375 AD5478 +0.41569 AD5678 +0.23754 AD1379 +0.59385 AD2379 +0.08314 AD3579 +0.02375 AD5479 +0.41569 AD5679 +0.52577 OUT278 +0.52577 OUT279 +0.32504 CASC78 +0.32504 CASC79 +0.35785 CHAL78 +0.35785 CHAL79 +0.63754 CHAI78 +0.63754 CHAI79 +0.07265 TGAZ78 +0.07265 TGAZ79 +3.0733 N60078 +3.0733 N60079 +1.80724 T75078 +1.80724 T75079 = +0
 FXE80: -1 FEXE80 +0.24348 AD1378 +0.6087 AD2378 +0.08522 AD3578 +0.02435 AD5478 +0.42609 AD5678 +0.24348 AD1379 +0.6087 AD2379 +0.08522 AD3579 +0.02435 AD5479 +0.42609 AD5679 +0.24348 AD1380 +0.6087 AD2380 +0.08522 AD3580 +0.02435 AD5480 +0.42609 AD5680 +0.55136 OUT278 +0.55136 OUT279 +0.55136 OUT280 +0.3413 CASC78 +0.3413 CASC79 +0.3413 CASC80 +0.37476 CHAL78 +0.37476 CHAL79 +0.37476 CHAL80 +0.66594 CHAI78 +0.66594 CHAI79 +0.66594 CHAI80 +0.07614 TGAZ78 +0.07614 TGAZ79 +0.07614 TGAZ80 +3.13476 N60078 +3.13476 N60079 +3.13476 N60080 +1.85216 T75078
 +1.85216 T75079 +1.85216 T75080 = +0
 FXE81: -1 FEXE81 +0.24957 AD1378 +0.62391 AD2378 +0.08735 AD3578 +0.02496 AD5478 +0.43674 AD5678 +0.24956 AD1379 +0.62391 AD2379 +0.08735 AD3579 +0.02496 AD5479 +0.43674 AD5679 +0.24956 AD1380 +0.62391 AD2380 +0.08735 AD3580 +0.02496 AD5480 +0.43674 AD5680 +0.24956 AD1381 +0.62391 AD2381 +0.08735 AD3581 +0.02496 AD5481 +0.43674 AD5681 +0.57821 OUT278 +0.57821 OUT279 +0.57821 OUT280 +0.35836 CASC78 +0.35836 CASC79 +0.35836 CASC80 +0.35836 CASC81 +0.39249 CHAL78 +0.39249 CHAL79 +0.39249 CHAL80 +0.39249 CHAL81 +0.69569 CHAI78 +0.69569 CHAI79 +0.69569
 CHAI80 +0.69569 CHAI81 +0.07981 TGAZ78 +0.07981 TGAZ79 +0.07981 TGAZ80 +0.07981 TGAZ81 +3.19745 N60078 +3.19745 N60079 +3.19745 N60080 +3.19745 N60081 +1.89819 T75078 +1.89819 T75079 +1.89819 T75080 +1.89819 T75081 = +0
 XX178: -1 XX1378 +0.60001 N60078 = -2.99005
 XX179: +1 XX1378 -1 XX1379 +0.60001 N60079 = -0.11
 XX378: +1 XX1378 +1 XX2378 -1 XX3578 +0.224 CASC78 +0.124 CHAL78 +0.80001 CHAI78 +0.06 TGAZ78 = +0.1
 XX379: -1 XX1378 -1 XX2378 +1 XX3578 +1 XX1379 +1 XX2379 -1 XX3579 +0.224 CASC79 +0.124 CHAL79 +0.80001 CHAI79 +0.06 TGAZ79 = -0.1
 L2378: -1 CP2378 +0.50001 AD2378 = -4.00007
 L2379: +1 CP2378 -1 CP2379 +0.50001 AD2379 = -0.1
 R2378: -1 CP2378 +1 XX2378 <= +0
 XX278: -1 XX2378 +0.75001 T75078 = -3.90007
 XX279: +1 XX2378 -1 XX2379 +0.75001 T75079 = +0.2
 L3578: -1 CP3578 +1.00002 AD3578 = -7.00012
 L3579: +1 CP3578 -1 CP3579 +1.00002 AD3579 = +0
 R3578: -1 CP3578 +1 XX3578 <= +0
 XX578: +1 XX3578 -1 XX5478 -1 XX5678 = +0.70001
 XX579: -1 XX3578 +1 XX5478 +1 XX5678 +1 XX3579 -1 XX5479 -1 XX5679 = +0
 L5478: -1 CP5478 +0.50001 AD5478 = -4.00007
 L5479: +1 CP5478 -1 CP5479 +0.50001 AD5479 = +0
 R5478: -1 CP5478 +1 XX5478 <= +0
 L5678: -1 CP5678 +0.2 AD5678 = -3.00005
 L5679: +1 CP5678 -1 CP5679 +0.2 AD5679 = +0.90002
 R5678: -1 CP5678 +1 XX5678 <= +0
 L1380: +1 CP1379 -1 CP1380 +0.50001 AD1380 = +0
 R1379: -1 CP1379 +1 XX1379 <= +0
 XX180: +1 XX1379 -1 XX1380 +0.60001 N60080 = -0.40001
 XX380: -1 XX1379 -1 XX2379 +1 XX3579 +1 XX1380 +1 XX2380 -1 XX3580 +0.224 CASC80 +0.124 CHAL80 +0.80001 CHAI80 +0.06 TGAZ80 = +0
 L2380: +1 CP2379 -1 CP2380 +0.50001 AD2380 = +0
 R2379: -1 CP2379 +1 XX2379 <= +0
 XX280: +1 XX2379 -1 XX2380 +0.75001 T75080 = +0.2
 L3580: +1 CP3579 -1 CP3580 +1.00002 AD3580 = +0
 R3579: -1 CP3579 +1 XX3579 <= +0
 XX580: -1 XX3579 +1 XX5479 +1 XX5679 +1 XX3580 -1 XX5480 -1 XX5680 = -0.1
 L5480: +1 CP5479 -1 CP5480 +0.50001 AD5480 = +0
 R5479: -1 CP5479 +1 XX5479 <= +0
 L5680: +1 CP5679 -1 CP5680 +0.2 AD5680 = +0
 R5679: -1 CP5679 +1 XX5679 <= +0
 L1381: +1 CP1380 -1 CP1381 +0.50001 AD1381 = +0
 R1380: -1 CP1380 +1 XX1380 <= +0
 XX181: +1 XX1380 -1 XX1381 +0.60001 N60081 = +0
 XX381: -1 XX1380 -1 XX2380 +1 XX3580 +1 XX1381 +1 XX2381 -1 XX3581 +0.224 CASC81 +0.124 CHAL81 +0.80001 CHAI81 +0.06 TGAZ81 = +0
 L2381: +1 CP2380 -1 CP2381 +0.50001 AD2381 = +0
 R2380: -1 CP2380 +1 XX2380 <= +0
 XX281: +1 XX2380 -1 XX2381 +0.75001 T75081 = +0.1
 L3581: +1 CP3580 -1 CP3581 +1.00002 AD3581 = +0
 R3580: -1 CP3580 +1 XX3580 <= +0
 XX581: -1 XX3580 +1 XX5480 +1 XX5680 +1 XX3581 -1 XX5481 -1 XX5681 = +0
 L5481: +1 CP5480 -1 CP5481 +0.50001 AD5481 = +0
 R5480: -1 CP5480 +1 XX5480 <= +0
 L5681: +1 CP5680 -1 CP5681 +0.2 AD5681 = +0
 R5680: -1 CP5680 +1 XX5680 <= +0
 R1381: -1 CP1381 +1 XX1381 <= +0
 R2381: -1 CP2381 +1 XX2381 <= +0
 R3581: -1 CP3581 +1 XX3581 <= +0
 R5481: -1 CP5481 +1 XX5481 <= +0
 R5681: -1 CP5681 +1 XX5681 <= +0
 HCP78: -1 HCAP78 +0.39701 OUT278 +0.224 CASC78 +0.124 CHAL78 = -10.00017
 HED78: -1 HEND78 +2.07003 OUT278 +0.46701 CASC78 +0.19 CHAL78 = -93.46956
 RES78: -1 RESV78 +0.02779 OUT278 +0.01568 CASC78 +0.00868 CHAL78 +0.088 CHAI78 +0.0075 TGAZ78 +0.29101 N60078 +0.43126 T75078 = -2.30004
 RES79: -1 RESV79 +0.02779 OUT278 +0.02779 OUT279 +0.01568 CASC78 +0.01568 CASC79 +0.00868 CHAL78 +0.00868 CHAL79 +0.08554 CHAI78 +0.08712 CHAI79 +0.00731 TGAZ78 +0.00743 TGAZ79 +0.2287 N60078 +0.2881 N60079 +0.3527 T75078 +0.42695 T75079 = -2.20004
 RES80: -1 RESV80 +0.02724 OUT278 +0.02751 OUT279 +0.02751 OUT280 +0.01537 CASC78 +0.01552 CASC79 +0.01552 CASC80 +0.00851 CHAL78 +0.00859 CHAL79 +0.00859 CHAL80 +0.08311 CHAI78 +0.08467 CHAI79 +0.08624 CHAI80 +0.00719 TGAZ78 +0.00731 TGAZ79 +0.00743 TGAZ80 +0.16759 N60078 +0.22639 N60079 +0.28519 N60080 +0.27563 T75078 +0.34914 T75079 +0.42264 T75080 = -2.10003
 RES81: -1 RESV81 +0.01264 OUT278 +0.02696 OUT279 +0.02724 OUT280 +0.00713 CASC78 +0.01521 CASC79 +0.01537 CASC80 +0.01537 CASC81 +0.00395 CHAL78 +0.00842 CHAL79 +0.00851 CHAL80 +0.00851 CHAL81 +0.06272 CHAI78 +0.08311 CHAI79 +0.08467 CHAI80 +0.08624 CHAI81 +0.00706 TGAZ78 +0.00711 TGAZ79 +0.00723 TGAZ80 +0.00735 TGAZ81 +0.15133 N60078 +0.16588 N60079 +0.22408 N60080 +0.28228 N60081 +0.23645 T75078 +0.27282 T75079 +0.34557 T75080 +0.41833 T75081 = -2.10003
 OUT2X: +1 OUT278 +1 OUT279 +1 OUT280 <= +1
 HCP79: +1 HCAP78 -1 HCAP79 +0.39701 OUT279 +0.224 CASC79 +0.124 CHAL79 = +0
 HED79: +1 HEND78 -1 HEND79 +2.07003 OUT279 +0.46701 CASC79 +0.19 CHAL79 = +0
 HCP80: +1 HCAP79 -1 HCAP80 +0.39701 OUT280 +0.224 CASC80 +0.124 CHAL80 = +0
 HED80: +1 HEND79 -1 HEND80 +2.07003 OUT280 +0.46701 CASC80 +0.19 CHAL80 = +0
 CASCX: +1 CASC78 +1 CASC79 +1 CASC80 +1 CASC81 <= +1
 HCP81: +1 HCAP80 -1 HCAP81 +0.224 CASC81 +0.124 CHAL81 = +0
 HED81: +1 HEND80 -1 HEND81 +0.46701 CASC81 +0.19 CHAL81 = +0
 CHALX: +1 CHAL78 +1 CHAL79 +1 CHAL80 +1 CHAL81 <= +1
 RCP78: -1 RCAP78 +0.80001 CHAI78 = -4
 RCP79: +1 RCAP78 -1 RCAP79 +0.80001 CHAI79 = +0
 RCP80: +1 RCAP79 -1 RCAP80 +0.80001 CHAI80 = +0
 RCP81: +1 RCAP80 -1 RCAP81 +0.80001 CHAI81 = +0
 GCP78: -1 GCAP78 +0.06 TGAZ78 = -0.50001
 GCP79: +1 GCAP78 -1 GCAP79 +0.06 TGAZ79 = +0
 GCP80: +1 GCAP79 -1 GCAP80 +0.06 TGAZ80 = +0
 GCP81: +1 GCAP80 -1 GCAP81 +0.06 TGAZ81 = +0
 NCP78: -1 NCAP78 +0.60001 N60078 = -1.00002
 NCP79: +1 NCAP78 -1 NCAP79 +0.60001 N60079 = +0
 NCP80: +1 NCAP79 -1 NCAP80 +0.60001 N60080 = +0
 NCP81: +1 NCAP80 -1 NCAP81 +0.60001 N60081 = +0
 BCP78: -1 BCAP78 +0.75001 T75078 = +0
 BCP79: +1 BCAP78 -1 BCAP79 +0.75001 T75079 = +0
 BCP80: +1 BCAP79 -1 BCAP80 +0.75001 T75080 = +0
 BCP81: +1 BCAP80 -1 BCAP81 +0.75001 T75081 = +0
 ACP78: -1 ACHT78 = -0.35501
 CRS78: +0.11416 ACHT78 +1 HCAP78 +1 NCAP78 +1 TCAP78 +1 BCAP78 +1 RCAP78 +1 GCAP78 -1 RESV78 >= +15.35027
 ACP79: +1 ACHT78 -1 ACHT79 = +0.037
 AAH78: -1 ACHT78 +8.76015 WK1H78 +6.1321 WK2H78 +4.02967 WK3H78 +1.75203 WK4H78 -1 HENE78 >= +0
 CCH78: -0.11416 ACHT78 -0.98802 HCAP78 +1 WK1H78 +1 WK2H78 +1 WK3H78 +1 WK4H78 <= +0
 AAN78: -1 ACHT78 -1 HENE78 +8.76015 WK1N78 +6.1321 WK2N78 +4.02967 WK3N78 +1.75203 WK4N78 -1 NENE78 >= +0
 CCN78: -0.11416 ACHT78 -0.98802 HCAP78 -0.85001 NCAP78 +1 WK1N78 +1 WK2N78 +1 WK3N78 +1 WK4N78 <= +0
 AAT78: -1 ACHT78 -1 HENE78 -1 NENE78 +8.76015 WK1T78 +6.1321 WK2T78 +4.02967 WK3T78 +1.75203 WK4T78 -1 TENE78 >= +0
 CCT78: -0.11416 ACHT78 -0.98802 HCAP78 -0.85001 NCAP78 -0.75 TCAP78 +1 WK1T78 +1 WK2T78 +1 WK3T78 +1 WK4T78 <= +0.085
 AAB78: -1 ACHT78 -1 HENE78 -1 NENE78 -1 TENE78 +8.76015 WK1B78 +6.1321 WK2B78 +4.02967 WK3B78 +1.75203 WK4B78 -1 BENE78 >= +0
 CCB78: -0.11416 ACHT78 -0.98802 HCAP78 -0.85001 NCAP78 -0.75 TCAP78 -0.75001 BCAP78 +1 WK1B78 +1 WK2B78 +1 WK3B78 +1 WK4B78 <= +0.085
 AAR78: -1 ACHT78 -1 HENE78 -1 NENE78 -1 TENE78 -1 BENE78 +8.76015 WK1R78 +6.1321 WK2R78 +4.02967 WK3R78 +1.75203 WK4R78 -1 RENE78 >= +0
 CCR78: -0.11416 ACHT78 -0.98802 HCAP78 -0.85001 NCAP78 -0.75 TCAP78 -0.75001 BCAP78 -0.98802 RCAP78 +1 WK1R78 +1 WK2R78 +1 WK3R78 +1 WK4R78 <= +0.085
 AAG78: -1 ACHT78 -1 HENE78 -1 NENE78 -1 TENE78 -1 BENE78 -1 RENE78 +8.76015 WK1G78 +6.1321 WK2G78 +4.02967 WK3G78 +1.75203 WK4G78 -1 GENE78 = +0
 CCG78: -0.11416 ACHT78 -0.98802 HCAP78 -0.85001 NCAP78 -0.75 TCAP78 -0.75001 BCAP78 -0.98802 RCAP78 -0.90002 GCAP78 +1 WK1G78 +1 WK2G78 +1 WK3G78 +1 WK4G78 <= +0.085
 CRS79: +0.11416 ACHT79 +1 HCAP79 +1 NCAP79 +1 TCAP79 +1 BCAP79 +1 RCAP79 +1 GCAP79 -1 RESV79 >= +16.56027
 ACP80: +1 ACHT79 -1 ACHT80 = +0
 AAH79: -1 ACHT79 +8.76015 WK1H79 +6.1321 WK2H79 +4.02967 WK3H79 +1.75203 WK4H79 -1 HENE79 >= +0
 CCH79: -0.11416 ACHT79 -0.98802 HCAP79 +1 WK1H79 +1 WK2H79 +1 WK3H79 +1 WK4H79 <= +0
 AAN79: -1 ACHT79 -1 HENE79 +8.76015 WK1N79 +6.1321 WK2N79 +4.02967 WK3N79 +1.75203 WK4N79 -1 NENE79 >= +0
 CCN79: -0.11416 ACHT79 -0.98802 HCAP79 -0.85001 NCAP79 +1 WK1N79 +1 WK2N79 +1 WK3N79 +1 WK4N79 <= +0
 AAT79: -1 ACHT79 -1 HENE79 -1 NENE79 +8.76015 WK1T79 +6.1321 WK2T79 +4.02967 WK3T79 +1.75203 WK4T79 -1 TENE79 >= +0
 CCT79: -0.11416 ACHT79 -0.07 TCAP78 -0.98802 HCAP79 -0.85001 NCAP79 -0.75 TCAP79 +1 WK1T79 +1 WK2T79 +1 WK3T79 +1 WK4T79 <= +0.03
 AAB79: -1 ACHT79 -1 HENE79 -1 NENE79 -1 TENE79 +8.76015 WK1B79 +6.1321 WK2B79 +4.02967 WK3B79 +1.75203 WK4B79 -1 BENE79 >= +0
 CCB79: -0.11416 ACHT79 -0.07 TCAP78 -0.05 BCAP78 -0.98802 HCAP79 -0.85001 NCAP79 -0.75 TCAP79 -0.75001 BCAP79 +1 WK1B79 +1 WK2B79 +1 WK3B79 +1 WK4B79 <= +0.03
 AAR79: -1 ACHT79 -1 HENE79 -1 NENE79 -1 TENE79 -1 BENE79 +8.76015 WK1R79 +6.1321 WK2R79 +4.02967 WK3R79 +1.75203 WK4R79 -1 RENE79 >= +0
 CCR79: -0.11416 ACHT79 -0.07 TCAP78 -0.05 BCAP78 -0.98802 HCAP79 -0.85001 NCAP79 -0.75 TCAP79 -0.75001 BCAP79 -0.98802 RCAP79 +1 WK1R79 +1 WK2R79 +1 WK3R79 +1 WK4R79 <= +0.03
 AAG79: -1 ACHT79 -1 HENE79 -1 NENE79 -1 TENE79 -1 BENE79 -1 RENE79 +8.76015 WK1G79 +6.1321 WK2G79 +4.02967 WK3G79 +1.75203 WK4G79 -1 GENE79 = +0
 CCG79: -0.11416 ACHT79 -0.07 TCAP78 -0.05 BCAP78 -0.98802 HCAP79 -0.85001 NCAP79 -0.75 TCAP79 -0.75001 BCAP79 -0.98802 RCAP79 -0.90002 GCAP79 +1 WK1G79 +1 WK2G79 +1 WK3G79 +1 WK4G79 <= +0.03
 CRS80: +0.11416 ACHT80 +1 HCAP80 +1 NCAP80 +1 TCAP80 +1 BCAP80 +1 RCAP80 +1 GCAP80 -1 RESV80 >= +17.86028
 ACP81: +1 ACHT80 -1 ACHT81 = +0.202
 AAH80: -1 ACHT80 +8.76015 WK1H80 +6.1321 WK2H80 +4.02967 WK3H80 +1.75203 WK4H80 -1 HENE80 >= +0
 CCH80: -0.11416 ACHT80 -0.98802 HCAP80 +1 WK1H80 +1 WK2H80 +1 WK3H80 +1 WK4H80 <= +0
 AAN80: -1 ACHT80 -1 HENE80 +8.76015 WK1N80 +6.1321 WK2N80 +4.02967 WK3N80 +1.75203 WK4N80 -1 NENE80 >= +0
 CCN80: -0.11416 ACHT80 -0.98802 HCAP80 -0.85001 NCAP80 +1 WK1N80 +1 WK2N80 +1 WK3N80 +1 WK4N80 <= +0
 AAT80: -1 ACHT80 -1 HENE80 -1 NENE80 +8.76015 WK1T80 +6.1321 WK2T80 +4.02967 WK3T80 +1.75203 WK4T80 -1 TENE80 >= +0
 CCT80: -0.11416 ACHT80 -0.03 TCAP78 -0.07 TCAP79 -0.98802 HCAP80 -0.85001 NCAP80 -0.75 TCAP80 +1 WK1T80 +1 WK2T80 +1 WK3T80 +1 WK4T80 <= +0
 AAB80: -1 ACHT80 -1 HENE80 -1 NENE80 -1 TENE80 +8.76015 WK1B80 +6.1321 WK2B80 +4.02967 WK3B80 +1.75203 WK4B80 -1 BENE80 >= +0
 CCB80: -0.11416 ACHT80 -0.03 TCAP78 -0.03 BCAP78 -0.07 TCAP79 -0.05 BCAP79 -0.98802 HCAP80 -0.85001 NCAP80 -0.75 TCAP80 -0.75001 BCAP80 +1 WK1B80 +1 WK2B80 +1 WK3B80 +1 WK4B80 <= +0
 AAR80: -1 ACHT80 -1 HENE80 -1 NENE80 -1 TENE80 -1 BENE80 +8.76015 WK1R80 +6.1321 WK2R80 +4.02967 WK3R80 +1.75203 WK4R80 -1 RENE80 >= +0
 CCR80: -0.11416 ACHT80 -0.03 TCAP78 -0.03 BCAP78 -0.07 TCAP79 -0.05 BCAP79 -0.98802 HCAP80 -0.85001 NCAP80 -0.75 TCAP80 -0.75001 BCAP80 -0.98802 RCAP80 +1 WK1R80 +1 WK2R80 +1 WK3R80 +1 WK4R80 <= +0
 AAG80: -1 ACHT80 -1 HENE80 -1 NENE80 -1 TENE80 -1 BENE80 -1 RENE80 +8.76015 WK1G80 +6.1321 WK2G80 +4.02967 WK3G80 +1.75203 WK4G80 -1 GENE80 = +0
 CCG80: -0.11416 ACHT80 -0.03 TCAP78 -0.03 BCAP78 -0.07 TCAP79 -0.05 BCAP79 -0.98802 HCAP80 -0.85001 NCAP80 -0.75 TCAP80 -0.75001 BCAP80 -0.98802 RCAP80 -0.90002 GCAP80 +1 WK1G80 +1 WK2G80 +1 WK3G80 +1 WK4G80 <= +0
 CRS81: +0.11416 ACHT81 +1 HCAP81 +1 NCAP81 +1 TCAP81 +1 BCAP81 +1 RCAP81 +1 GCAP81 -1 RESV81 >= +19.27029
 AAH81: -1 ACHT81 +8.76015 WK1H81 +6.1321 WK2H81 +4.02967 WK3H81 +1.75203 WK4H81 -1 HENE81 >= +0
 CCH81: -0.11416 ACHT81 -0.98802 HCAP81 +1 WK1H81 +1 WK2H81 +1 WK3H81 +1 WK4H81 <= +0
 AAN81: -1 ACHT81 -1 HENE81 +8.76015 WK1N81 +6.1321 WK2N81 +4.02967 WK3N81 +1.75203 WK4N81 -1 NENE81 >= +0
 CCN81: -0.11416 ACHT81 -0.98802 HCAP81 -0.85001 NCAP81 +1 WK1N81 +1 WK2N81 +1 WK3N81 +1 WK4N81 <= +0
 AAT81: -1 ACHT81 -1 HENE81 -1 NENE81 +8.76015 WK1T81 +6.1321 WK2T81 +4.02967 WK3T81 +1.75203 WK4T81 -1 TENE81 >= +0
 CCT81: -0.11416 ACHT81 -0.03 TCAP79 -0.07 TCAP80 -0.98802 HCAP81 -0.85001 NCAP81 -0.75 TCAP81 +1 WK1T81 +1 WK2T81 +1 WK3T81 +1 WK4T81 <= +0
 AAB81: -1 ACHT81 -1 HENE81 -1 NENE81 -1 TENE81 +8.76015 WK1B81 +6.1321 WK2B81 +4.02967 WK3B81 +1.75203 WK4B81 -1 BENE81 >= +0
 CCB81: -0.11416 ACHT81 -0.02 BCAP78 -0.03 TCAP79 -0.03 BCAP79 -0.07 TCAP80 -0.05 BCAP80 -0.98802 HCAP81 -0.85001 NCAP81 -0.75 TCAP81 -0.75001 BCAP81 +1 WK1B81 +1 WK2B81 +1 WK3B81 +1 WK4B81 <= +0
 AAR81: -1 ACHT81 -1 HENE81 -1 NENE81 -1 TENE81 -1 BENE81 +8.76015 WK1R81 +6.1321 WK2R81 +4.02967 WK3R81 +1.75203 WK4R81 -1 RENE81 >= +0
 CCR81: -0.11416 ACHT81 -0.02 BCAP78 -0.03 TCAP79 -0.03 BCAP79 -0.07 TCAP80 -0.05 BCAP80 -0.98802 HCAP81 -0.85001 NCAP81 -0.75 TCAP81 -0.75001 BCAP81 -0.98802 RCAP81 +1 WK1R81 +1 WK2R81 +1 WK3R81 +1 WK4R81 <= +0
 AAG81: -1 ACHT81 -1 HENE81 -1 NENE81 -1 TENE81 -1 BENE81 -1 RENE81 +8.76015 WK1G81 +6.1321 WK2G81 +4.02967 WK3G81 +1.75203 WK4G81 -1 GENE81 = +0
 CCG81: -0.11416 ACHT81 -0.02 BCAP78 -0.03 TCAP79 -0.03 BCAP79 -0.07 TCAP80 -0.05 BCAP80 -0.98802 HCAP81 -0.85001 NCAP81 -0.75 TCAP81 -0.75001 BCAP81 -0.98802 RCAP81 -0.90002 GCAP81 +1 WK1G81 +1 WK2G81 +1 WK3G81 +1 WK4G81 <= +0
 EEH78: +1 ESEC78 +0.02433 GRES78 -1 HEND78 +1 EHRP78 +1 HENE78 <= +7.12154
 EEH79: -0.02508 GRES78 +1 ESEC79 +0.02433 GRES79 -1 HEND79 +1 EHRP79 +1 HENE79 <= +0
 RPM78: -0.75001 EHRP78 -0.75001 ENRP78 -0.75001 ETRP78 -0.75001 EBRP78 +1 RENE78 <= +0
 EEN78: -7.00813 NCAP78 +1 ENRP78 +1 NENE78 <= +0
 TCP78: -1 TCAP78 = -1.00002
 TCP79: +1 TCAP78 -1 TCAP79 = +0
 EET78: -6.13201 TCAP78 +1 ETRP78 +1 TENE78 <= +0.62196
 EET79: -0.438 TCAP78 -6.13201 TCAP79 +1 ETRP79 +1 TENE79 <= +0.3504
 EET80: -0.2628 TCAP78 -0.438 TCAP79 -6.13201 TCAP80 +1 ETRP80 +1 TENE80 <= +0.1752
 EET81: -0.1752 TCAP78 -0.2628 TCAP79 -0.438 TCAP80 -6.13201 TCAP81 +1 ETRP81 +1 TENE81 <= +0
 EEB78: -7.00813 BCAP78 +1 EBRP78 +1 BENE78 <= +0
 EEB79: -7.00813 BCAP79 +1 EBRP79 +1 BENE79 <= +0
 EEB80: -7.00813 BCAP80 +1 EBRP80 +1 BENE80 <= +0
 EEB81: -7.00813 BCAP81 +1 EBRP81 +1 BENE81 <= +0
 EER78: -2.19004 RCAP78 +1 RENE78 <= +0
 EEG78: -3.50406 GCAP78 +1 GENE78 <= +0
 EEH80: -0.02508 GRES79 +1 ESEC80 +0.02433 GRES80 -1 HEND80 +1 EHRP80 +1 HENE80 <= +0
 RPM79: -0.75001 EHRP79 -0.75001 ENRP79 -0.75001 ETRP79 -0.75001 EBRP79 +1 RENE79 <= +0
 EEN79: -7.00813 NCAP79 +1 ENRP79 +1 NENE79 <= +0
 TCP80: +1 TCAP79 -1 TCAP80 = +0
 EER79: -2.19004 RCAP79 +1 RENE79 <= +0
 EEG79: -3.50406 GCAP79 +1 GENE79 <= +0
 EEH81: -0.02508 GRES80 +1 ESEC81 +0.02433 GRES81 -1 HEND81 +1 EHRP81 +1 HENE81 <= +0
 RPM80: -0.75001 EHRP80 -0.75001 ENRP80 -0.75001 ETRP80 -0.75001 EBRP80 +1 RENE80 <= +0
 EEN80: -7.00813 NCAP80 +1 ENRP80 +1 NENE80 <= +0
 TCP81: +1 TCAP80 -1 TCAP81 = +0
 EER80: -2.19004 RCAP80 +1 RENE80 <= +0
 EEG80: -3.50406 GCAP80 +1 GENE80 <= +0
 RPM81: -0.75001 EHRP81 -0.75001 ENRP81 -0.75001 ETRP81 -0.75001 EBRP81 +1 RENE81 <= +0
 EEN81: -7.00813 NCAP81 +1 ENRP81 +1 NENE81 <= +0
 EER81: -2.19004 RCAP81 +1 RENE81 <= +0
 EEG81: -3.50406 GCAP81 +1 GENE81 <= +0
 DGRES: -1 GRES80 +1 GRES81 = +0
bounds
 RVAD72 free
 RVAD73 free
 RVAD74 free
 RVAD75 free
 RVAD76 free
 RVAD77 free
 RVAD78 free
 RVAD79 free
 RVAD80 free
 RVAD81 free
 ACHT78 free
 ACHT79 free
 ACHT80 free
 ACHT81 free
 GRES78 <= 284.00488
 WK1H78 <= 8.07907
 WK2H78 <= 1.79244
 WK3H78 <= 1.57957
 WK4H78 <= 1.51985
 WK1N78 <= 8.07907
 WK2N78 <= 1.79244
 WK3N78 <= 1.57957
 WK4N78 <= 1.51985
 WK1T78 <= 8.07907
 WK2T78 <= 1.79244
 WK3T78 <= 1.57957
 WK4T78 <= 1.51985
 WK1B78 <= 8.07907
 WK2B78 <= 1.79244
 WK3B78 <= 1.57957
 WK4B78 <= 1.51985
 WK1R78 <= 8.07907
 WK2R78 <= 1.79244
 WK3R78 <= 1.57957
 WK4R78 <= 1.51985
 WK1G78 = 8.07907
 WK2G78 = 1.79244
 WK3G78 = 1.57957
 WK4G78 = 1.51985
 GRES79 <= 284.00488
 WK1H79 <= 8.71593
 WK2H79 <= 1.93373
 WK3H79 <= 1.70408
 WK4H79 <= 1.63966
 WK1N79 <= 8.71593
 WK2N79 <= 1.93373
 WK3N79 <= 1.70408
 WK4N79 <= 1.63966
 WK1T79 <= 8.71593
 WK2T79 <= 1.93373
 WK3T79 <= 1.70408
 WK4T79 <= 1.63966
 WK1B79 <= 8.71593
 WK2B79 <= 1.93373
 WK3B79 <= 1.70408
 WK4B79 <= 1.63966
 WK1R79 <= 8.71593
 WK2R79 <= 1.93373
 WK3R79 <= 1.70408
 WK4R79 <= 1.63966
 WK1G79 = 8.71593
 WK2G79 = 1.93373
 WK3G79 = 1.70408
 WK4G79 = 1.63966
 GRES80 <= 284.00488
 WK1H80 <= 9.40015
 WK2H80 <= 2.08553
 WK3H80 <= 1.83785
 WK4H80 <= 1.76837
 WK1N80 <= 9.40015
 WK2N80 <= 2.08553
 WK3N80 <= 1.83785
 WK4N80 <= 1.76837
 WK1T80 <= 9.40015
 WK2T80 <= 2.08553
 WK3T80 <= 1.83785
 WK4T80 <= 1.76837
 WK1B80 <= 9.40015
 WK2B80 <= 2.08553
 WK3B80 <= 1.83785
 WK4B80 <= 1.76837
 WK1R80 <= 9.40015
 WK2R80 <= 2.08553
 WK3R80 <= 1.83785
 WK4R80 <= 1.76837
 WK1G80 = 9.40015
 WK2G80 = 2.08553
 WK3G80 = 1.83785
 WK4G80 = 1.76837
 GRES81 <= 284.00488
 WK1H81 <= 10.14226
 WK2H81 <= 2.25018
 WK3H81 <= 1.98295
 WK4H81 <= 1.90798
 WK1N81 <= 10.14226
 WK2N81 <= 2.25018
 WK3N81 <= 1.98295
 WK4N81 <= 1.90798
 WK1T81 <= 10.14226
 WK2T81 <= 2.25018
 WK3T81 <= 1.98295
 WK4T81 <= 1.90798
 WK1B81 <= 10.14226
 WK2B81 <= 2.25018
 WK3B81 <= 1.98295
 WK4B81 <= 1.90798
 WK1R81 <= 10.14226
 WK2R81 <= 2.25018
 WK3R81 <= 1.98295
 WK4R81 <= 1.90798
 WK1G81 = 10.14226
 WK2G81 = 2.25018
 WK3G81 = 1.98295
 WK4G81 = 1.90798
 AD1378 <= 10
 AD2378 <= 10
 AD3578 <= 10
 AD5478 <= 10
 AD5678 <= 10
 AD1379 <= 10
 AD2379 <= 10
 AD3579 <= 10
 AD5479 <= 10
 AD5679 <= 10
 AD1380 <= 10
 AD2380 <= 10
 AD3580 <= 10
 AD5480 <= 10
 AD5680 <= 10
 AD1381 <= 10
 AD2381 <= 10
 AD3581 <= 10
 AD5481 <= 10
 AD5681 <= 10
 OUT278 <= 1
 OUT279 <= 1
 OUT280 <= 1
 CASC78 <= 1
 CASC79 <= 1
 CASC80 <= 1
 CASC81 <= 1
 CHAL78 <= 1
 CHAL79 <= 1
 CHAL80 <= 1
 CHAL81 <= 1
 CHAI78 <= 1
 CHAI79 <= 1
 CHAI80 <= 1
 CHAI81 <= 1
 TGAZ78 <= 10
 TGAZ79 <= 10
 TGAZ80 <= 10
 TGAZ81 <= 10
 N60078 <= 2
 N60079 <= 2
 N60080 <= 2
 N60081 <= 2
 T75078 <= 2
 T75079 <= 2
 T75080 <= 2
 T75081 <= 2
end
